&CONTROL
   prefix = 'MoS2'
   calculation = 'bands'
   restart_mode = 'from_scratch'
   wf_collect = .true.
   tstress = .true.
   tprnfor = .true.
   outdir = './'
   wfcdir = './'
   pseudo_dir = './'
   nstep = 200
/

&SYSTEM
   ibrav=0
   celldm(1)=5.971534553626d0
   nat = 3
   ntyp = 2
   ecutwfc = 60.0
   nbnd = 16 
/

&ELECTRONS
   electron_maxstep = 200
   conv_thr = 1.0d-6
   mixing_mode = 'plain'
   mixing_beta = 0.7
   mixing_ndim = 8
   diagonalization = 'david'
   diago_david_ndim = 4
   diago_full_acc = .true.
/

ATOMIC_SPECIES
  Mo 95.940000d0 Mo.UPF
  S  32.065000d0 S.UPF

CELL_PARAMETERS {alat}
  1.000000000000d0  0.000000000000d0  0.000000000000d0
 -0.500000000000d0  0.866025403784d0  0.000000000000d0
  0.000000000000d0  0.000000000000d0  6.012658227848d0

ATOMIC_POSITIONS {crystal}
Mo       0.333333333   0.666666667   0.500000000
S        0.666666667   0.333333333   0.417199842
S        0.666666667   0.333333333   0.582800158

K_POINTS crystal
780
  0.000437373  0.000000000  0.000000000   1.0
  0.000437373  0.083333333  0.000000000   2.0
  0.917104040  0.000000000  0.000000000   1.0
  0.000437373  0.166666667  0.000000000   2.0
  0.833770706  0.000000000  0.000000000   1.0
  0.000437373  0.250000000  0.000000000   2.0
  0.750437373  0.000000000  0.000000000   1.0
  0.000437373  0.333333333  0.000000000   2.0
  0.667104040  0.000000000  0.000000000   1.0
  0.000437373  0.416666667  0.000000000   2.0
  0.583770706  0.000000000  0.000000000   1.0
  0.000437373  0.500000000  0.000000000   2.0
  0.500437373  0.000000000  0.000000000   1.0
  0.000437373  0.583333333  0.000000000   2.0
  0.417104040  0.000000000  0.000000000   1.0
  0.000437373  0.666666667  0.000000000   2.0
  0.333770706  0.000000000  0.000000000   1.0
  0.000437373  0.750000000  0.000000000   2.0
  0.250437373  0.000000000  0.000000000   1.0
  0.000437373  0.833333333  0.000000000   2.0
  0.167104040  0.000000000  0.000000000   1.0
  0.000437373  0.916666667  0.000000000   2.0
  0.083770706  0.000000000  0.000000000   1.0
  0.083770706  0.083333333  0.000000000   2.0
  0.083770706  0.833333334  0.000000000   2.0
  0.833770707  0.083333333  0.000000000   2.0
  0.083770706  0.166666667  0.000000000   2.0
  0.167104040  0.750000000  0.000000000   2.0
  0.750437373  0.083333333  0.000000000   2.0
  0.083770706  0.250000000  0.000000000   2.0
  0.250437373  0.666666667  0.000000000   2.0
  0.667104040  0.083333333  0.000000000   2.0
  0.083770706  0.333333333  0.000000000   2.0
  0.333770706  0.583333334  0.000000000   2.0
  0.583770707  0.083333333  0.000000000   2.0
  0.083770706  0.416666667  0.000000000   2.0
  0.417104040  0.500000000  0.000000000   2.0
  0.500437373  0.083333333  0.000000000   2.0
  0.083770706  0.500000000  0.000000000   2.0
  0.500437373  0.416666667  0.000000000   2.0
  0.417104040  0.083333333  0.000000000   2.0
  0.083770706  0.583333333  0.000000000   2.0
  0.583770706  0.333333334  0.000000000   2.0
  0.333770707  0.083333333  0.000000000   2.0
  0.083770706  0.666666667  0.000000000   2.0
  0.667104040  0.250000000  0.000000000   2.0
  0.250437373  0.083333333  0.000000000   2.0
  0.083770706  0.750000000  0.000000000   2.0
  0.750437373  0.166666667  0.000000000   2.0
  0.167104040  0.083333333  0.000000000   2.0
  0.167104040  0.166666667  0.000000000   2.0
  0.167104040  0.666666666  0.000000000   2.0
  0.667104039  0.166666667  0.000000000   2.0
  0.167104040  0.250000000  0.000000000   2.0
  0.250437373  0.583333333  0.000000000   2.0
  0.583770706  0.166666667  0.000000000   2.0
  0.167104040  0.333333333  0.000000000   2.0
  0.333770706  0.500000000  0.000000000   2.0
  0.500437373  0.166666667  0.000000000   2.0
  0.167104040  0.416666667  0.000000000   2.0
  0.417104040  0.416666666  0.000000000   2.0
  0.417104039  0.166666667  0.000000000   2.0
  0.167104040  0.500000000  0.000000000   2.0
  0.500437373  0.333333333  0.000000000   2.0
  0.333770706  0.166666667  0.000000000   2.0
  0.167104040  0.583333333  0.000000000   2.0
  0.583770706  0.250000000  0.000000000   2.0
  0.250437373  0.166666667  0.000000000   2.0
  0.250437373  0.250000000  0.000000000   2.0
  0.250437373  0.500000000  0.000000000   2.0
  0.500437373  0.250000000  0.000000000   2.0
  0.250437373  0.333333333  0.000000000   2.0
  0.333770706  0.416666667  0.000000000   2.0
  0.417104040  0.250000000  0.000000000   2.0
  0.250437373  0.416666667  0.000000000   2.0
  0.417104040  0.333333333  0.000000000   2.0
  0.333770706  0.250000000  0.000000000   2.0
  0.333770706  0.333333333  0.000000000   2.0
  0.001749492  0.000000000  0.000000000   1.0
  0.001749492  0.083333333  0.000000000   2.0
  0.918416159  0.000000000  0.000000000   1.0
  0.001749492  0.166666667  0.000000000   2.0
  0.835082825  0.000000000  0.000000000   1.0
  0.001749492  0.250000000  0.000000000   2.0
  0.751749492  0.000000000  0.000000000   1.0
  0.001749492  0.333333333  0.000000000   2.0
  0.668416159  0.000000000  0.000000000   1.0
  0.001749492  0.416666667  0.000000000   2.0
  0.585082825  0.000000000  0.000000000   1.0
  0.001749492  0.500000000  0.000000000   2.0
  0.501749492  0.000000000  0.000000000   1.0
  0.001749492  0.583333333  0.000000000   2.0
  0.418416159  0.000000000  0.000000000   1.0
  0.001749492  0.666666667  0.000000000   2.0
  0.335082825  0.000000000  0.000000000   1.0
  0.001749492  0.750000000  0.000000000   2.0
  0.251749492  0.000000000  0.000000000   1.0
  0.001749492  0.833333333  0.000000000   2.0
  0.168416159  0.000000000  0.000000000   1.0
  0.001749492  0.916666667  0.000000000   2.0
  0.085082825  0.000000000  0.000000000   1.0
  0.085082825  0.083333333  0.000000000   2.0
  0.085082825  0.833333334  0.000000000   2.0
  0.835082826  0.083333333  0.000000000   2.0
  0.085082825  0.166666667  0.000000000   2.0
  0.168416159  0.750000000  0.000000000   2.0
  0.751749492  0.083333333  0.000000000   2.0
  0.085082825  0.250000000  0.000000000   2.0
  0.251749492  0.666666667  0.000000000   2.0
  0.668416159  0.083333333  0.000000000   2.0
  0.085082825  0.333333333  0.000000000   2.0
  0.335082825  0.583333334  0.000000000   2.0
  0.585082826  0.083333333  0.000000000   2.0
  0.085082825  0.416666667  0.000000000   2.0
  0.418416159  0.500000000  0.000000000   2.0
  0.501749492  0.083333333  0.000000000   2.0
  0.085082825  0.500000000  0.000000000   2.0
  0.501749492  0.416666667  0.000000000   2.0
  0.418416159  0.083333333  0.000000000   2.0
  0.085082825  0.583333333  0.000000000   2.0
  0.585082825  0.333333334  0.000000000   2.0
  0.335082826  0.083333333  0.000000000   2.0
  0.085082825  0.666666667  0.000000000   2.0
  0.668416159  0.250000000  0.000000000   2.0
  0.251749492  0.083333333  0.000000000   2.0
  0.085082825  0.750000000  0.000000000   2.0
  0.751749492  0.166666667  0.000000000   2.0
  0.168416159  0.083333333  0.000000000   2.0
  0.168416159  0.166666667  0.000000000   2.0
  0.168416159  0.666666666  0.000000000   2.0
  0.668416158  0.166666667  0.000000000   2.0
  0.168416159  0.250000000  0.000000000   2.0
  0.251749492  0.583333333  0.000000000   2.0
  0.585082825  0.166666667  0.000000000   2.0
  0.168416159  0.333333333  0.000000000   2.0
  0.335082825  0.500000000  0.000000000   2.0
  0.501749492  0.166666667  0.000000000   2.0
  0.168416159  0.416666667  0.000000000   2.0
  0.418416159  0.416666666  0.000000000   2.0
  0.418416158  0.166666667  0.000000000   2.0
  0.168416159  0.500000000  0.000000000   2.0
  0.501749492  0.333333333  0.000000000   2.0
  0.335082825  0.166666667  0.000000000   2.0
  0.168416159  0.583333333  0.000000000   2.0
  0.585082825  0.250000000  0.000000000   2.0
  0.251749492  0.166666667  0.000000000   2.0
  0.251749492  0.250000000  0.000000000   2.0
  0.251749492  0.500000000  0.000000000   2.0
  0.501749492  0.250000000  0.000000000   2.0
  0.251749492  0.333333333  0.000000000   2.0
  0.335082825  0.416666667  0.000000000   2.0
  0.418416159  0.250000000  0.000000000   2.0
  0.251749492  0.416666667  0.000000000   2.0
  0.418416159  0.333333333  0.000000000   2.0
  0.335082825  0.250000000  0.000000000   2.0
  0.335082825  0.333333333  0.000000000   2.0
  0.003936357  0.000000000  0.000000000   1.0
  0.003936357  0.083333333  0.000000000   2.0
  0.920603024  0.000000000  0.000000000   1.0
  0.003936357  0.166666667  0.000000000   2.0
  0.837269690  0.000000000  0.000000000   1.0
  0.003936357  0.250000000  0.000000000   2.0
  0.753936357  0.000000000  0.000000000   1.0
  0.003936357  0.333333333  0.000000000   2.0
  0.670603024  0.000000000  0.000000000   1.0
  0.003936357  0.416666667  0.000000000   2.0
  0.587269690  0.000000000  0.000000000   1.0
  0.003936357  0.500000000  0.000000000   2.0
  0.503936357  0.000000000  0.000000000   1.0
  0.003936357  0.583333333  0.000000000   2.0
  0.420603024  0.000000000  0.000000000   1.0
  0.003936357  0.666666667  0.000000000   2.0
  0.337269690  0.000000000  0.000000000   1.0
  0.003936357  0.750000000  0.000000000   2.0
  0.253936357  0.000000000  0.000000000   1.0
  0.003936357  0.833333333  0.000000000   2.0
  0.170603024  0.000000000  0.000000000   1.0
  0.003936357  0.916666667  0.000000000   2.0
  0.087269690  0.000000000  0.000000000   1.0
  0.087269690  0.083333333  0.000000000   2.0
  0.087269690  0.833333334  0.000000000   2.0
  0.837269691  0.083333333  0.000000000   2.0
  0.087269690  0.166666667  0.000000000   2.0
  0.170603024  0.750000000  0.000000000   2.0
  0.753936357  0.083333333  0.000000000   2.0
  0.087269690  0.250000000  0.000000000   2.0
  0.253936357  0.666666667  0.000000000   2.0
  0.670603024  0.083333333  0.000000000   2.0
  0.087269690  0.333333333  0.000000000   2.0
  0.337269690  0.583333334  0.000000000   2.0
  0.587269691  0.083333333  0.000000000   2.0
  0.087269690  0.416666667  0.000000000   2.0
  0.420603024  0.500000000  0.000000000   2.0
  0.503936357  0.083333333  0.000000000   2.0
  0.087269690  0.500000000  0.000000000   2.0
  0.503936357  0.416666667  0.000000000   2.0
  0.420603024  0.083333333  0.000000000   2.0
  0.087269690  0.583333333  0.000000000   2.0
  0.587269690  0.333333334  0.000000000   2.0
  0.337269691  0.083333333  0.000000000   2.0
  0.087269690  0.666666667  0.000000000   2.0
  0.670603024  0.250000000  0.000000000   2.0
  0.253936357  0.083333333  0.000000000   2.0
  0.087269690  0.750000000  0.000000000   2.0
  0.753936357  0.166666667  0.000000000   2.0
  0.170603024  0.083333333  0.000000000   2.0
  0.170603024  0.166666667  0.000000000   2.0
  0.170603024  0.666666666  0.000000000   2.0
  0.670603023  0.166666667  0.000000000   2.0
  0.170603024  0.250000000  0.000000000   2.0
  0.253936357  0.583333333  0.000000000   2.0
  0.587269690  0.166666667  0.000000000   2.0
  0.170603024  0.333333333  0.000000000   2.0
  0.337269690  0.500000000  0.000000000   2.0
  0.503936357  0.166666667  0.000000000   2.0
  0.170603024  0.416666667  0.000000000   2.0
  0.420603024  0.416666666  0.000000000   2.0
  0.420603023  0.166666667  0.000000000   2.0
  0.170603024  0.500000000  0.000000000   2.0
  0.503936357  0.333333333  0.000000000   2.0
  0.337269690  0.166666667  0.000000000   2.0
  0.170603024  0.583333333  0.000000000   2.0
  0.587269690  0.250000000  0.000000000   2.0
  0.253936357  0.166666667  0.000000000   2.0
  0.253936357  0.250000000  0.000000000   2.0
  0.253936357  0.500000000  0.000000000   2.0
  0.503936357  0.250000000  0.000000000   2.0
  0.253936357  0.333333333  0.000000000   2.0
  0.337269690  0.416666667  0.000000000   2.0
  0.420603024  0.250000000  0.000000000   2.0
  0.253936357  0.416666667  0.000000000   2.0
  0.420603024  0.333333333  0.000000000   2.0
  0.337269690  0.250000000  0.000000000   2.0
  0.337269690  0.333333333  0.000000000   2.0
  0.006997967  0.000000000  0.000000000   1.0
  0.006997967  0.083333333  0.000000000   2.0
  0.923664634  0.000000000  0.000000000   1.0
  0.006997967  0.166666667  0.000000000   2.0
  0.840331300  0.000000000  0.000000000   1.0
  0.006997967  0.250000000  0.000000000   2.0
  0.756997967  0.000000000  0.000000000   1.0
  0.006997967  0.333333333  0.000000000   2.0
  0.673664634  0.000000000  0.000000000   1.0
  0.006997967  0.416666667  0.000000000   2.0
  0.590331300  0.000000000  0.000000000   1.0
  0.006997967  0.500000000  0.000000000   2.0
  0.506997967  0.000000000  0.000000000   1.0
  0.006997967  0.583333333  0.000000000   2.0
  0.423664634  0.000000000  0.000000000   1.0
  0.006997967  0.666666667  0.000000000   2.0
  0.340331300  0.000000000  0.000000000   1.0
  0.006997967  0.750000000  0.000000000   2.0
  0.256997967  0.000000000  0.000000000   1.0
  0.006997967  0.833333333  0.000000000   2.0
  0.173664634  0.000000000  0.000000000   1.0
  0.006997967  0.916666667  0.000000000   2.0
  0.090331300  0.000000000  0.000000000   1.0
  0.090331300  0.083333333  0.000000000   2.0
  0.090331300  0.833333334  0.000000000   2.0
  0.840331301  0.083333333  0.000000000   2.0
  0.090331300  0.166666667  0.000000000   2.0
  0.173664634  0.750000000  0.000000000   2.0
  0.756997967  0.083333333  0.000000000   2.0
  0.090331300  0.250000000  0.000000000   2.0
  0.256997967  0.666666667  0.000000000   2.0
  0.673664634  0.083333333  0.000000000   2.0
  0.090331300  0.333333333  0.000000000   2.0
  0.340331300  0.583333334  0.000000000   2.0
  0.590331301  0.083333333  0.000000000   2.0
  0.090331300  0.416666667  0.000000000   2.0
  0.423664634  0.500000000  0.000000000   2.0
  0.506997967  0.083333333  0.000000000   2.0
  0.090331300  0.500000000  0.000000000   2.0
  0.506997967  0.416666667  0.000000000   2.0
  0.423664634  0.083333333  0.000000000   2.0
  0.090331300  0.583333333  0.000000000   2.0
  0.590331300  0.333333334  0.000000000   2.0
  0.340331301  0.083333333  0.000000000   2.0
  0.090331300  0.666666667  0.000000000   2.0
  0.673664634  0.250000000  0.000000000   2.0
  0.256997967  0.083333333  0.000000000   2.0
  0.090331300  0.750000000  0.000000000   2.0
  0.756997967  0.166666667  0.000000000   2.0
  0.173664634  0.083333333  0.000000000   2.0
  0.173664634  0.166666667  0.000000000   2.0
  0.173664634  0.666666666  0.000000000   2.0
  0.673664633  0.166666667  0.000000000   2.0
  0.173664634  0.250000000  0.000000000   2.0
  0.256997967  0.583333333  0.000000000   2.0
  0.590331300  0.166666667  0.000000000   2.0
  0.173664634  0.333333333  0.000000000   2.0
  0.340331300  0.500000000  0.000000000   2.0
  0.506997967  0.166666667  0.000000000   2.0
  0.173664634  0.416666667  0.000000000   2.0
  0.423664634  0.416666666  0.000000000   2.0
  0.423664633  0.166666667  0.000000000   2.0
  0.173664634  0.500000000  0.000000000   2.0
  0.506997967  0.333333333  0.000000000   2.0
  0.340331300  0.166666667  0.000000000   2.0
  0.173664634  0.583333333  0.000000000   2.0
  0.590331300  0.250000000  0.000000000   2.0
  0.256997967  0.166666667  0.000000000   2.0
  0.256997967  0.250000000  0.000000000   2.0
  0.256997967  0.500000000  0.000000000   2.0
  0.506997967  0.250000000  0.000000000   2.0
  0.256997967  0.333333333  0.000000000   2.0
  0.340331300  0.416666667  0.000000000   2.0
  0.423664634  0.250000000  0.000000000   2.0
  0.256997967  0.416666667  0.000000000   2.0
  0.423664634  0.333333333  0.000000000   2.0
  0.340331300  0.250000000  0.000000000   2.0
  0.340331300  0.333333333  0.000000000   2.0
  0.010934324  0.000000000  0.000000000   1.0
  0.010934324  0.083333333  0.000000000   2.0
  0.927600991  0.000000000  0.000000000   1.0
  0.010934324  0.166666667  0.000000000   2.0
  0.844267657  0.000000000  0.000000000   1.0
  0.010934324  0.250000000  0.000000000   2.0
  0.760934324  0.000000000  0.000000000   1.0
  0.010934324  0.333333333  0.000000000   2.0
  0.677600991  0.000000000  0.000000000   1.0
  0.010934324  0.416666667  0.000000000   2.0
  0.594267657  0.000000000  0.000000000   1.0
  0.010934324  0.500000000  0.000000000   2.0
  0.510934324  0.000000000  0.000000000   1.0
  0.010934324  0.583333333  0.000000000   2.0
  0.427600991  0.000000000  0.000000000   1.0
  0.010934324  0.666666667  0.000000000   2.0
  0.344267657  0.000000000  0.000000000   1.0
  0.010934324  0.750000000  0.000000000   2.0
  0.260934324  0.000000000  0.000000000   1.0
  0.010934324  0.833333333  0.000000000   2.0
  0.177600991  0.000000000  0.000000000   1.0
  0.010934324  0.916666667  0.000000000   2.0
  0.094267657  0.000000000  0.000000000   1.0
  0.094267657  0.083333333  0.000000000   2.0
  0.094267657  0.833333334  0.000000000   2.0
  0.844267658  0.083333333  0.000000000   2.0
  0.094267657  0.166666667  0.000000000   2.0
  0.177600991  0.750000000  0.000000000   2.0
  0.760934324  0.083333333  0.000000000   2.0
  0.094267657  0.250000000  0.000000000   2.0
  0.260934324  0.666666667  0.000000000   2.0
  0.677600991  0.083333333  0.000000000   2.0
  0.094267657  0.333333333  0.000000000   2.0
  0.344267657  0.583333334  0.000000000   2.0
  0.594267658  0.083333333  0.000000000   2.0
  0.094267657  0.416666667  0.000000000   2.0
  0.427600991  0.500000000  0.000000000   2.0
  0.510934324  0.083333333  0.000000000   2.0
  0.094267657  0.500000000  0.000000000   2.0
  0.510934324  0.416666667  0.000000000   2.0
  0.427600991  0.083333333  0.000000000   2.0
  0.094267657  0.583333333  0.000000000   2.0
  0.594267657  0.333333334  0.000000000   2.0
  0.344267658  0.083333333  0.000000000   2.0
  0.094267657  0.666666667  0.000000000   2.0
  0.677600991  0.250000000  0.000000000   2.0
  0.260934324  0.083333333  0.000000000   2.0
  0.094267657  0.750000000  0.000000000   2.0
  0.760934324  0.166666667  0.000000000   2.0
  0.177600991  0.083333333  0.000000000   2.0
  0.177600991  0.166666667  0.000000000   2.0
  0.177600991  0.666666666  0.000000000   2.0
  0.677600990  0.166666667  0.000000000   2.0
  0.177600991  0.250000000  0.000000000   2.0
  0.260934324  0.583333333  0.000000000   2.0
  0.594267657  0.166666667  0.000000000   2.0
  0.177600991  0.333333333  0.000000000   2.0
  0.344267657  0.500000000  0.000000000   2.0
  0.510934324  0.166666667  0.000000000   2.0
  0.177600991  0.416666667  0.000000000   2.0
  0.427600991  0.416666666  0.000000000   2.0
  0.427600990  0.166666667  0.000000000   2.0
  0.177600991  0.500000000  0.000000000   2.0
  0.510934324  0.333333333  0.000000000   2.0
  0.344267657  0.166666667  0.000000000   2.0
  0.177600991  0.583333333  0.000000000   2.0
  0.594267657  0.250000000  0.000000000   2.0
  0.260934324  0.166666667  0.000000000   2.0
  0.260934324  0.250000000  0.000000000   2.0
  0.260934324  0.500000000  0.000000000   2.0
  0.510934324  0.250000000  0.000000000   2.0
  0.260934324  0.333333333  0.000000000   2.0
  0.344267657  0.416666667  0.000000000   2.0
  0.427600991  0.250000000  0.000000000   2.0
  0.260934324  0.416666667  0.000000000   2.0
  0.427600991  0.333333333  0.000000000   2.0
  0.344267657  0.250000000  0.000000000   2.0
  0.344267657  0.333333333  0.000000000   2.0
  0.015745426  0.000000000  0.000000000   1.0
  0.015745426  0.083333333  0.000000000   2.0
  0.932412093  0.000000000  0.000000000   1.0
  0.015745426  0.166666667  0.000000000   2.0
  0.849078759  0.000000000  0.000000000   1.0
  0.015745426  0.250000000  0.000000000   2.0
  0.765745426  0.000000000  0.000000000   1.0
  0.015745426  0.333333333  0.000000000   2.0
  0.682412093  0.000000000  0.000000000   1.0
  0.015745426  0.416666667  0.000000000   2.0
  0.599078759  0.000000000  0.000000000   1.0
  0.015745426  0.500000000  0.000000000   2.0
  0.515745426  0.000000000  0.000000000   1.0
  0.015745426  0.583333333  0.000000000   2.0
  0.432412093  0.000000000  0.000000000   1.0
  0.015745426  0.666666667  0.000000000   2.0
  0.349078759  0.000000000  0.000000000   1.0
  0.015745426  0.750000000  0.000000000   2.0
  0.265745426  0.000000000  0.000000000   1.0
  0.015745426  0.833333333  0.000000000   2.0
  0.182412093  0.000000000  0.000000000   1.0
  0.015745426  0.916666667  0.000000000   2.0
  0.099078759  0.000000000  0.000000000   1.0
  0.099078759  0.083333333  0.000000000   2.0
  0.099078759  0.833333334  0.000000000   2.0
  0.849078760  0.083333333  0.000000000   2.0
  0.099078759  0.166666667  0.000000000   2.0
  0.182412093  0.750000000  0.000000000   2.0
  0.765745426  0.083333333  0.000000000   2.0
  0.099078759  0.250000000  0.000000000   2.0
  0.265745426  0.666666667  0.000000000   2.0
  0.682412093  0.083333333  0.000000000   2.0
  0.099078759  0.333333333  0.000000000   2.0
  0.349078759  0.583333334  0.000000000   2.0
  0.599078760  0.083333333  0.000000000   2.0
  0.099078759  0.416666667  0.000000000   2.0
  0.432412093  0.500000000  0.000000000   2.0
  0.515745426  0.083333333  0.000000000   2.0
  0.099078759  0.500000000  0.000000000   2.0
  0.515745426  0.416666667  0.000000000   2.0
  0.432412093  0.083333333  0.000000000   2.0
  0.099078759  0.583333333  0.000000000   2.0
  0.599078759  0.333333334  0.000000000   2.0
  0.349078760  0.083333333  0.000000000   2.0
  0.099078759  0.666666667  0.000000000   2.0
  0.682412093  0.250000000  0.000000000   2.0
  0.265745426  0.083333333  0.000000000   2.0
  0.099078759  0.750000000  0.000000000   2.0
  0.765745426  0.166666667  0.000000000   2.0
  0.182412093  0.083333333  0.000000000   2.0
  0.182412093  0.166666667  0.000000000   2.0
  0.182412093  0.666666666  0.000000000   2.0
  0.682412092  0.166666667  0.000000000   2.0
  0.182412093  0.250000000  0.000000000   2.0
  0.265745426  0.583333333  0.000000000   2.0
  0.599078759  0.166666667  0.000000000   2.0
  0.182412093  0.333333333  0.000000000   2.0
  0.349078759  0.500000000  0.000000000   2.0
  0.515745426  0.166666667  0.000000000   2.0
  0.182412093  0.416666667  0.000000000   2.0
  0.432412093  0.416666666  0.000000000   2.0
  0.432412092  0.166666667  0.000000000   2.0
  0.182412093  0.500000000  0.000000000   2.0
  0.515745426  0.333333333  0.000000000   2.0
  0.349078759  0.166666667  0.000000000   2.0
  0.182412093  0.583333333  0.000000000   2.0
  0.599078759  0.250000000  0.000000000   2.0
  0.265745426  0.166666667  0.000000000   2.0
  0.265745426  0.250000000  0.000000000   2.0
  0.265745426  0.500000000  0.000000000   2.0
  0.515745426  0.250000000  0.000000000   2.0
  0.265745426  0.333333333  0.000000000   2.0
  0.349078759  0.416666667  0.000000000   2.0
  0.432412093  0.250000000  0.000000000   2.0
  0.265745426  0.416666667  0.000000000   2.0
  0.432412093  0.333333333  0.000000000   2.0
  0.349078759  0.250000000  0.000000000   2.0
  0.349078759  0.333333333  0.000000000   2.0
  0.021431275  0.000000000  0.000000000   1.0
  0.021431275  0.083333333  0.000000000   2.0
  0.938097942  0.000000000  0.000000000   1.0
  0.021431275  0.166666667  0.000000000   2.0
  0.854764608  0.000000000  0.000000000   1.0
  0.021431275  0.250000000  0.000000000   2.0
  0.771431275  0.000000000  0.000000000   1.0
  0.021431275  0.333333333  0.000000000   2.0
  0.688097942  0.000000000  0.000000000   1.0
  0.021431275  0.416666667  0.000000000   2.0
  0.604764608  0.000000000  0.000000000   1.0
  0.021431275  0.500000000  0.000000000   2.0
  0.521431275  0.000000000  0.000000000   1.0
  0.021431275  0.583333333  0.000000000   2.0
  0.438097942  0.000000000  0.000000000   1.0
  0.021431275  0.666666667  0.000000000   2.0
  0.354764608  0.000000000  0.000000000   1.0
  0.021431275  0.750000000  0.000000000   2.0
  0.271431275  0.000000000  0.000000000   1.0
  0.021431275  0.833333333  0.000000000   2.0
  0.188097942  0.000000000  0.000000000   1.0
  0.021431275  0.916666667  0.000000000   2.0
  0.104764608  0.000000000  0.000000000   1.0
  0.104764608  0.083333333  0.000000000   2.0
  0.104764608  0.833333334  0.000000000   2.0
  0.854764609  0.083333333  0.000000000   2.0
  0.104764608  0.166666667  0.000000000   2.0
  0.188097942  0.750000000  0.000000000   2.0
  0.771431275  0.083333333  0.000000000   2.0
  0.104764608  0.250000000  0.000000000   2.0
  0.271431275  0.666666667  0.000000000   2.0
  0.688097942  0.083333333  0.000000000   2.0
  0.104764608  0.333333333  0.000000000   2.0
  0.354764608  0.583333334  0.000000000   2.0
  0.604764609  0.083333333  0.000000000   2.0
  0.104764608  0.416666667  0.000000000   2.0
  0.438097942  0.500000000  0.000000000   2.0
  0.521431275  0.083333333  0.000000000   2.0
  0.104764608  0.500000000  0.000000000   2.0
  0.521431275  0.416666667  0.000000000   2.0
  0.438097942  0.083333333  0.000000000   2.0
  0.104764608  0.583333333  0.000000000   2.0
  0.604764608  0.333333334  0.000000000   2.0
  0.354764609  0.083333333  0.000000000   2.0
  0.104764608  0.666666667  0.000000000   2.0
  0.688097942  0.250000000  0.000000000   2.0
  0.271431275  0.083333333  0.000000000   2.0
  0.104764608  0.750000000  0.000000000   2.0
  0.771431275  0.166666667  0.000000000   2.0
  0.188097942  0.083333333  0.000000000   2.0
  0.188097942  0.166666667  0.000000000   2.0
  0.188097942  0.666666666  0.000000000   2.0
  0.688097941  0.166666667  0.000000000   2.0
  0.188097942  0.250000000  0.000000000   2.0
  0.271431275  0.583333333  0.000000000   2.0
  0.604764608  0.166666667  0.000000000   2.0
  0.188097942  0.333333333  0.000000000   2.0
  0.354764608  0.500000000  0.000000000   2.0
  0.521431275  0.166666667  0.000000000   2.0
  0.188097942  0.416666667  0.000000000   2.0
  0.438097942  0.416666666  0.000000000   2.0
  0.438097941  0.166666667  0.000000000   2.0
  0.188097942  0.500000000  0.000000000   2.0
  0.521431275  0.333333333  0.000000000   2.0
  0.354764608  0.166666667  0.000000000   2.0
  0.188097942  0.583333333  0.000000000   2.0
  0.604764608  0.250000000  0.000000000   2.0
  0.271431275  0.166666667  0.000000000   2.0
  0.271431275  0.250000000  0.000000000   2.0
  0.271431275  0.500000000  0.000000000   2.0
  0.521431275  0.250000000  0.000000000   2.0
  0.271431275  0.333333333  0.000000000   2.0
  0.354764608  0.416666667  0.000000000   2.0
  0.438097942  0.250000000  0.000000000   2.0
  0.271431275  0.416666667  0.000000000   2.0
  0.438097942  0.333333333  0.000000000   2.0
  0.354764608  0.250000000  0.000000000   2.0
  0.354764608  0.333333333  0.000000000   2.0
  0.027991869  0.000000000  0.000000000   1.0
  0.027991869  0.083333333  0.000000000   2.0
  0.944658536  0.000000000  0.000000000   1.0
  0.027991869  0.166666667  0.000000000   2.0
  0.861325202  0.000000000  0.000000000   1.0
  0.027991869  0.250000000  0.000000000   2.0
  0.777991869  0.000000000  0.000000000   1.0
  0.027991869  0.333333333  0.000000000   2.0
  0.694658536  0.000000000  0.000000000   1.0
  0.027991869  0.416666667  0.000000000   2.0
  0.611325202  0.000000000  0.000000000   1.0
  0.027991869  0.500000000  0.000000000   2.0
  0.527991869  0.000000000  0.000000000   1.0
  0.027991869  0.583333333  0.000000000   2.0
  0.444658536  0.000000000  0.000000000   1.0
  0.027991869  0.666666667  0.000000000   2.0
  0.361325202  0.000000000  0.000000000   1.0
  0.027991869  0.750000000  0.000000000   2.0
  0.277991869  0.000000000  0.000000000   1.0
  0.027991869  0.833333333  0.000000000   2.0
  0.194658536  0.000000000  0.000000000   1.0
  0.027991869  0.916666667  0.000000000   2.0
  0.111325202  0.000000000  0.000000000   1.0
  0.111325202  0.083333333  0.000000000   2.0
  0.111325202  0.833333334  0.000000000   2.0
  0.861325203  0.083333333  0.000000000   2.0
  0.111325202  0.166666667  0.000000000   2.0
  0.194658536  0.750000000  0.000000000   2.0
  0.777991869  0.083333333  0.000000000   2.0
  0.111325202  0.250000000  0.000000000   2.0
  0.277991869  0.666666667  0.000000000   2.0
  0.694658536  0.083333333  0.000000000   2.0
  0.111325202  0.333333333  0.000000000   2.0
  0.361325202  0.583333334  0.000000000   2.0
  0.611325203  0.083333333  0.000000000   2.0
  0.111325202  0.416666667  0.000000000   2.0
  0.444658536  0.500000000  0.000000000   2.0
  0.527991869  0.083333333  0.000000000   2.0
  0.111325202  0.500000000  0.000000000   2.0
  0.527991869  0.416666667  0.000000000   2.0
  0.444658536  0.083333333  0.000000000   2.0
  0.111325202  0.583333333  0.000000000   2.0
  0.611325202  0.333333334  0.000000000   2.0
  0.361325203  0.083333333  0.000000000   2.0
  0.111325202  0.666666667  0.000000000   2.0
  0.694658536  0.250000000  0.000000000   2.0
  0.277991869  0.083333333  0.000000000   2.0
  0.111325202  0.750000000  0.000000000   2.0
  0.777991869  0.166666667  0.000000000   2.0
  0.194658536  0.083333333  0.000000000   2.0
  0.194658536  0.166666667  0.000000000   2.0
  0.194658536  0.666666666  0.000000000   2.0
  0.694658535  0.166666667  0.000000000   2.0
  0.194658536  0.250000000  0.000000000   2.0
  0.277991869  0.583333333  0.000000000   2.0
  0.611325202  0.166666667  0.000000000   2.0
  0.194658536  0.333333333  0.000000000   2.0
  0.361325202  0.500000000  0.000000000   2.0
  0.527991869  0.166666667  0.000000000   2.0
  0.194658536  0.416666667  0.000000000   2.0
  0.444658536  0.416666666  0.000000000   2.0
  0.444658535  0.166666667  0.000000000   2.0
  0.194658536  0.500000000  0.000000000   2.0
  0.527991869  0.333333333  0.000000000   2.0
  0.361325202  0.166666667  0.000000000   2.0
  0.194658536  0.583333333  0.000000000   2.0
  0.611325202  0.250000000  0.000000000   2.0
  0.277991869  0.166666667  0.000000000   2.0
  0.277991869  0.250000000  0.000000000   2.0
  0.277991869  0.500000000  0.000000000   2.0
  0.527991869  0.250000000  0.000000000   2.0
  0.277991869  0.333333333  0.000000000   2.0
  0.361325202  0.416666667  0.000000000   2.0
  0.444658536  0.250000000  0.000000000   2.0
  0.277991869  0.416666667  0.000000000   2.0
  0.444658536  0.333333333  0.000000000   2.0
  0.361325202  0.250000000  0.000000000   2.0
  0.361325202  0.333333333  0.000000000   2.0
  0.035427209  0.000000000  0.000000000   1.0
  0.035427209  0.083333333  0.000000000   2.0
  0.952093876  0.000000000  0.000000000   1.0
  0.035427209  0.166666667  0.000000000   2.0
  0.868760542  0.000000000  0.000000000   1.0
  0.035427209  0.250000000  0.000000000   2.0