&CONTROL
   prefix = 'WSe2'
   calculation = 'bands'
   restart_mode = 'from_scratch'
   wf_collect = .true.
   tstress = .true.
   tprnfor = .true.
   outdir = './'
   wfcdir = './'
   pseudo_dir = './'
   nstep = 200
/

&SYSTEM
   ibrav=0
   celldm(1)=6.2686750895d0
   nat = 3
   ntyp = 2
   nbnd = 18
   ecutwfc = 60.0
/

&ELECTRONS
   electron_maxstep = 200
   conv_thr = 1.0d-8
   mixing_mode = 'plain'
   mixing_beta = 0.7
   mixing_ndim = 8
   diagonalization = 'david'
   diago_david_ndim = 4
   diago_full_acc = .true.
/

ATOMIC_SPECIES
  Se 78.960000d0 Se.UPF
  W 183.840000d0 W.UPF

CELL_PARAMETERS {alat}
  0.988768588000d0  0.000000000000d0  0.000000000000d0
 -0.494384294000d0  0.856298715672d0  0.000000000000d0
  0.000000000000d0  0.000000000000d0  5.727653109211d0

ATOMIC_POSITIONS {crystal}
W        0.333333333   0.666666667   0.486446222
Se       0.666666667   0.333333333   0.397051046
Se       0.666666667   0.333333333   0.575844838

K_POINTS crystal
   31
  0.000000000  0.000000000  0.000000000   1.0
  0.000000000  0.083333333  0.000000000   3.0
  0.000000000  0.166666667  0.000000000   3.0
  0.000000000  0.250000000  0.000000000   3.0
  0.000000000  0.333333333  0.000000000   3.0
  0.000000000  0.416666667  0.000000000   3.0
  0.000000000  0.500000000  0.000000000   3.0
  0.000000000  0.583333333  0.000000000   3.0
  0.000000000  0.666666667  0.000000000   3.0
  0.000000000  0.750000000  0.000000000   3.0
  0.000000000  0.833333333  0.000000000   3.0
  0.000000000  0.916666667  0.000000000   3.0
  0.083333333  0.083333333  0.000000000   6.0
  0.083333333  0.166666667  0.000000000   6.0
  0.083333333  0.250000000  0.000000000   6.0
  0.083333333  0.333333333  0.000000000   6.0
  0.083333333  0.416666667  0.000000000   6.0
  0.083333333  0.500000000  0.000000000   6.0
  0.083333333  0.583333333  0.000000000   6.0
  0.083333333  0.666666667  0.000000000   6.0
  0.083333333  0.750000000  0.000000000   6.0
  0.166666667  0.166666667  0.000000000   6.0
  0.166666667  0.250000000  0.000000000   6.0
  0.166666667  0.333333333  0.000000000   6.0
  0.166666667  0.416666667  0.000000000   6.0
  0.166666667  0.500000000  0.000000000   6.0
  0.166666667  0.583333333  0.000000000   6.0
  0.250000000  0.250000000  0.000000000   6.0
  0.250000000  0.333333333  0.000000000   6.0
  0.250000000  0.416666667  0.000000000   6.0
  0.333333333  0.333333333  0.000000000   2.0
